\ This file was automatically generated by Zimpl
\ var x1 >= 0;
\ var x2 >= 0;
\ var x3 >= 0;
\ maximize Z:      3*x1 + 1*x2 + 4*x3;
\ subto r1:      6*x1 + 3*x2 + 5*x3 <= 25;
\ subto r2:     3*x1 + 4*x2 + 5*x3 <= 20;
\Problem name: pp
Maximize
 Z:  +3 x1 + x2 +4 x3
Subject to
 r1_1:
  +5 x3 +3 x2 +6 x1 <= 25
 r2_1:
  +5 x3 +4 x2 +3 x1 <= 20
Bounds
 0 <= x1 <= +inf
 0 <= x2 <= +inf
 0 <= x3 <= +inf
End
